results_rootrelaxation/bin012_060_039.srr.sol
solution status: optimal solution found
objective value:                     1.93282442748091
_var702_                           0.0503816793893146 	(obj:1)
_var703_                            0.186259541984734 	(obj:0)
_var733_                           0.0335877862595424 	(obj:0)
_var752_                           0.0335877862595427 	(obj:0)
_var776_                           0.0442748091603065 	(obj:0)
_var782_                            0.650381679389313 	(obj:0)
_var787_                            0.152671755725189 	(obj:0)
_var788_                           0.0503816793893146 	(obj:0)
_var790_                            0.633587786259543 	(obj:0)
_var794_                            0.374045801526718 	(obj:0)
_var798_                           0.0473282442748094 	(obj:0)
_var802_                            0.178625954198473 	(obj:0)
_var803_                            0.546564885496183 	(obj:0)
_var806_                            0.337404580152673 	(obj:0)
_var812_                           0.0656488549618328 	(obj:0)
_var814_                            0.354198473282443 	(obj:0)
_var835_                           0.0641221374045805 	(obj:1)
_var840_                            0.320610687022901 	(obj:0)
_var842_                            0.106870229007635 	(obj:0)
_var846_                            0.433587786259541 	(obj:0)
_var854_                          0.00305343511450468 	(obj:0)
_var855_                            0.145038167938932 	(obj:0)
_var860_                            0.322137404580153 	(obj:0)
_var861_                           0.0931297709923674 	(obj:0)
_var862_                           0.0198473282442746 	(obj:0)
_var863_                            0.453435114503817 	(obj:1)
_var866_                           0.0732824427480921 	(obj:0)
_var870_                           0.0412213740458018 	(obj:1)
_var871_                            0.287022900763359 	(obj:0)
_var873_                             0.29618320610687 	(obj:0)
_var876_                            0.296183206106868 	(obj:0)
_var877_                           0.0732824427480907 	(obj:1)
_var878_                           0.0625954198473266 	(obj:1)
_var882_                          0.00763358778625878 	(obj:0)
_var884_                            0.329770992366412 	(obj:0)
_var886_                            0.207633587786261 	(obj:0)
_var887_                             0.25038167938931 	(obj:0)
_var888_                            0.323664122137403 	(obj:0)
_var897_                           0.0305343511450361 	(obj:0)
_var898_                           0.0534351145038194 	(obj:1)
_var899_                           0.0412213740458018 	(obj:0)
_var902_                           0.0992366412213739 	(obj:1)
_var908_                            0.308396946564885 	(obj:0)
_var909_                            0.270229007633588 	(obj:1)
_var912_                            0.137404580152671 	(obj:0)
_var913_                           0.0534351145038156 	(obj:0)
_var914_                          0.00916030534351253 	(obj:0)
_var915_                            0.210687022900763 	(obj:0)
_var917_                            0.500763358778626 	(obj:0)
_var919_                           0.0427480916030535 	(obj:1)
_var920_                             0.23053435114504 	(obj:1)
_var921_                            0.187786259541983 	(obj:2)
_var928_                            0.102290076335878 	(obj:0)
_var929_                           0.0702290076335876 	(obj:0)
_var931_                             0.25496183206107 	(obj:0)
_var933_                             0.31297709923664 	(obj:0)
_var935_                           0.0458015267175566 	(obj:1)
_var937_                           0.0045801526717546 	(obj:0)
_var939_                           0.0458015267175565 	(obj:1)
_var941_                           0.0244274809160295 	(obj:1)
_var942_                           0.0137404580152681 	(obj:0)
